dag/Luyben.col
V
z
rxt
TR
PR
x[1]
x[2]
x[3]
x[4]
x[5]
x[6]
x[7]
x[8]
x[9]
x[10]
x[11]
x[12]
x[13]
x[14]
x[15]
x[16]
x[17]
x[18]
x[19]
y[0]
y[1]
y[2]
y[3]
y[4]
y[5]
y[6]
y[7]
y[8]
y[9]
y[10]
y[11]
y[12]
y[13]
y[14]
y[15]
y[16]
y[17]
y[18]
yB
F0
PA
PB
T1
