dag/Luyben.sol
 
Ipopt 3.11.8: Optimal Solution Found

Options
7
0
2
0
48
20140224
0
1
48
48
48
48
0
0
0
0
0
0
0
0
0
0
0
0
0
0
0
0
0
0
0
0
0
0
0
0
0
0
0
0
0
0
0
0
0
0
0
0
0
0
0
0
0
0
0
0
0
0
0
0
277.7328698504927
0.5861813495489135
0.08608275842391994
140.7090972575802
51.32090207291207
0.5910844835079699
0.5973858016043722
0.6053688974822119
0.6153926349309299
0.6278383467788372
0.6430779398472152
0.6614241740409472
0.6830638745204883
0.7079818712215126
0.7358926703536963
0.766204290328097
0.7980380801761265
0.8303149586107575
0.8618947905486393
0.8917329376607532
0.9190101441134501
0.943204039420344
0.964094745761846
0.9817191842044446
0.7390817454019798
0.7429957235543256
0.7479543151340537
0.7541804235099641
0.7619109083891823
0.7713767746425927
0.7827722888372829
0.7962134948842607
0.8116909701041213
0.8290273839065356
0.8478550349677136
0.8676281611721752
0.8876765058343353
0.9072918895322336
0.9258254493558389
0.9427683156710176
0.9577960251448562
0.9707720036560338
0.9817191842235354
0.7390817459560045
105.22286985049286
32.35852262877177
64.70752086750426
137.00282597216855
objno 0 0
suffix 4 0 13 0 0
ipopt_zU_out
suffix 4 0 13 0 0
ipopt_zL_out
